Solver command line: ['C:\\gurobi1002\\win64\\bin\\gurobi.bat']

Set parameter Username
Academic license - for non-commercial use only - expires 2024-08-20
Read LP format model from file C:\Users\mhafeman\AppData\Local\Temp\tmpgi4eoxau.pyomo.lp
Reading time = 1.34 seconds
obj: 297841 rows, 262799 columns, 709547 nonzeros
Gurobi Optimizer version 10.0.2 build v10.0.2rc0 (win64)

CPU model: AMD Ryzen 7 3800X 8-Core Processor, instruction set [SSE2|AVX|AVX2]
Thread count: 8 physical cores, 16 logical processors, using up to 16 threads

Optimize a model with 297841 rows, 262799 columns and 709547 nonzeros
Model fingerprint: 0x8d435d67
Model has 8759 quadratic constraints
Variable types: 201480 continuous, 61319 integer (43800 binary)
Coefficient statistics:
  Matrix range     [1e-04, 3e+02]
  QMatrix range    [1e+00, 1e+00]
  Objective range  [1e-02, 5e+02]
  Bounds range     [1e+00, 3e+00]
  RHS range        [1e-03, 1e+03]
Presolve removed 230711 rows and 186909 columns
Presolve time: 1.01s
Presolved: 67130 rows, 75890 columns, 185183 nonzeros
Variable types: 42164 continuous, 33726 integer (33726 binary)
Deterministic concurrent LP optimizer: primal and dual simplex
Showing first log only...

Warning: Markowitz tolerance tightened to 0.5
Concurrent spin time: 0.06s

Solved with dual simplex

Root relaxation: objective -1.192532e+08, 20954 iterations, 0.49 seconds (0.44 work units)

    Nodes    |    Current Node    |     Objective Bounds      |     Work
 Expl Unexpl |  Obj  Depth IntInf | Incumbent    BestBd   Gap | It/Node Time

     0     0 -1.193e+08    0  179          - -1.193e+08      -     -    2s
H    0     0                    -1.19253e+08 -1.193e+08  0.00%     -    2s

Explored 1 nodes (22843 simplex iterations) in 2.19 seconds (2.23 work units)
Thread count was 16 (of 16 available processors)

Solution count 1: -1.19253e+08 

Optimal solution found (tolerance 1.00e-04)
Best objective -1.192525862431e+08, best bound -1.192531898354e+08, gap 0.0005%

